SystemName          Diamond
SystemLabel         C
NumberOfAtoms       2
NumberOfSpecies     1

%block ChemicalSpeciesLabel
 1  6 Carbono        
%endblock ChemicalSpeciesLabel

LatticeConstant         3.570469799459459 Ang
%block LatticeVectors
 0.00  0.50  0.50
 0.50  0.00  0.50
 0.50  0.50  0.00  
%endblock LatticeVectors

AtomicCoordinatesFormat  ScaledByLatticeVectors
%block AtomicCoordinatesAndAtomicSpecies
 0.00  0.00  0.00  1
 0.25  0.25  0.25  1
%endblock AtomicCoordinatesAndAtomicSpecies


%block kgrid_Monkhorst_Pack
 4  0  0  0.5 
 0  4  0  0.5
 0  0  4  0.5
%endblock kgrid_Monkhorst_Pack