SystemName     Diamond                                                                         
SystemLabel     C                                                                               
NumberOfAtoms              2
LatticeConstant          6.747212746           Bohr
# above item originally: LatticeConstant          3.570469799     Ang       
%block LatticeVectors
 0.00 0.50 0.50
 0.50 0.00 0.50
 0.50 0.50 0.00
AtomicCoordinatesFormat     ScaledCartesian                                                                 
%block AtomicCoordinatesAndAtomicSpecies
  0.125   0.125   0.125  1   28.086
 -0.125  -0.125  -0.125  1   28.086
SuperCell_1         0     # default value
SuperCell_2         0     # default value
SuperCell_3         0     # default value
%block BandLines
LatticeConstant          6.747212746           Bohr
# above item originally: LatticeConstant          3.570469799     Ang       
BandLinesScale     pi/a                                                                            
%block BandLines
  1  2.000  2.000  2.000  \Gamma
 15  2.000  0.000  0.000       X
 25  0.000  0.000  0.000  \Gamma
 20  1.000  1.000  1.000       L
 20  2.000  0.000  0.000       X
 15  2.000  1.000  0.000       W
 20  1.000  1.000  1.000       L
%endblock BandLines
Eigenvectors              F     # default value
Intensities              F     # default value
Vibra.FC     C.FC     # default value
SystemLabel     C                                                                               
